20190924 50 0 0 0
20190625 280 0 0 0
20180917 100 0 0 0
20180612 430 4000 0 0
20170914 100 0 0 0
20170613 220 0 0 0
20161020 80 0 0 0
20160621 120 0 0 0
20151014 80 0 0 0
20150721 80 0 0 0
20141010 80 0 0 0
20140724 100 0 0 0
20131008 60 0 0 0
20130716 20 0 0 0
20121012 70 0 0 0
20120725 200 0 0 0
